n_machines = 5;
n_resources = 6;
n_jobs = 120;
horizon = 6073;
LB = 1214;
n_jobs_per_resource = [20, 20, 20, 20, 20, 20];
duration = [95, 97, 91, 27, 62, 32, 19, 27, 26, 7, 51, 1, 99, 28, 7, 42, 49, 71, 95, 49, 78, 24, 37, 92, 65, 40, 75, 17, 99, 93, 22, 50, 69, 85, 82, 49, 50, 86, 43, 30, 84, 68, 56, 26, 63, 64, 26, 46, 77, 64, 40, 42, 96, 72, 2, 78, 27, 2, 20, 64, 41, 91, 23, 16, 41, 42, 19, 53, 53, 20, 9, 22, 10, 16, 65, 26, 97, 34, 17, 63, 49, 21, 98, 71, 74, 78, 85, 73, 55, 41, 21, 58, 9, 91, 71, 36, 75, 91, 86, 29, 49, 14, 3, 13, 68, 54, 66, 89, 3, 62, 47, 36, 49, 64, 35, 96, 51, 14, 18, 94]